language ESSENCE' 1.0

letting jobs = 102
letting horizon = 814
letting resourcesRenew = 2
letting resourcesNonrenew = 2
letting resourceLimits = [38, 36, 618, 622]
letting successors = [[2, 3, 4, 5, 6, 7, 8, 9, 10, 11, 13, 16, 17, 18, 19, 22, 33, 37], [46, 34, 32, 29, 28, 25, 23, 12], [47, 46, 43, 40, 34, 30, 29, 27, 20, 15], [63, 53, 50, 49, 47, 44, 43, 42, 40, 34, 32, 31, 29], [59, 53, 49, 47, 43, 40, 34, 30, 29, 26], [50, 49, 48, 47, 41, 40, 30, 26, 25], [59, 50, 46, 40, 14], [65, 62, 57, 54, 53, 52, 50, 45, 42, 41, 39, 38, 34, 32], [67, 59, 58, 54, 53, 52, 49, 44, 42, 40, 39, 36, 28], [59, 58, 54, 52, 50, 47, 44, 43, 40, 39, 34], [68, 59, 58, 52, 50, 42, 40, 27, 23], [68, 67, 58, 54, 47, 42, 39, 21], [67, 59, 58, 53, 52, 49, 47, 43, 42, 41, 40, 35, 28], [58, 53, 49, 47, 44, 39, 34, 29], [67, 62, 54, 53, 52, 51, 50, 49, 44, 42, 39, 31], [54, 48, 47, 44, 41, 31, 24], [65, 64, 60, 58, 52, 48, 47, 46, 44, 41, 28], [62, 54, 53, 50, 43, 40, 36, 34, 31], [73, 67, 63, 62, 59, 56, 54, 53, 51, 42, 31], [67, 62, 59, 54, 51, 50, 42, 39, 31], [64, 62, 59, 55, 51, 50, 49, 44, 41, 40], [79, 67, 64, 60, 58, 56, 55, 49, 47, 46, 43], [65, 57, 51, 48, 47, 44, 39], [101, 79, 67, 65, 64, 63, 60, 58, 56, 55, 52, 51, 43], [101, 86, 79, 68, 64, 63, 60, 59, 56, 53, 51, 43], [101, 67, 65, 62, 60, 58, 57, 44, 39], [101, 79, 70, 69, 65, 64, 62, 57, 56, 48], [101, 94, 79, 78, 77, 73, 71, 69, 68, 63, 62, 57, 55, 51], [101, 85, 73, 70, 69, 62, 61, 57, 56, 54, 52], [70, 69, 67, 64, 62, 56, 42], [101, 95, 94, 79, 75, 71, 70, 69, 65, 60, 58, 57, 55], [101, 79, 75, 73, 69, 67, 60, 59, 58, 56, 55], [95, 86, 79, 78, 67, 66, 63, 62, 61, 50], [94, 86, 85, 68, 64, 51, 48], [101, 94, 77, 71, 64, 63, 55, 51], [101, 94, 79, 78, 77, 76, 71, 55, 51], [96, 95, 73, 65, 55, 54], [95, 94, 85, 84, 79, 78, 77, 76, 75, 71, 70, 55], [79, 78, 77, 76, 75, 73, 69, 63, 55], [96, 77, 73, 69, 66, 65, 61, 57], [100, 94, 86, 85, 79, 76, 73, 71, 70, 69, 66, 61], [101, 95, 86, 84, 79, 75, 72, 66, 61, 60], [100, 96, 85, 84, 78, 76, 75, 73, 72, 69, 66, 61], [95, 85, 84, 66, 61, 56], [101, 98, 97, 96, 94, 86, 85, 84, 83, 77, 76, 74, 72, 71, 70], [101, 100, 99, 96, 95, 86, 85, 84, 81, 78, 77, 74, 69, 66], [101, 100, 95, 94, 86, 84, 75, 72, 71, 70, 69, 62], [96, 95, 75, 73, 71, 67, 55], [99, 96, 95, 94, 83, 81, 75, 74, 65], [101, 97, 94, 77, 75, 71, 69, 60], [100, 96, 95, 84, 75, 70, 66, 61], [100, 95, 91, 84, 80, 77, 74, 72, 71, 66], [96, 75, 55], [100, 99, 83, 77, 75, 64], [100, 72, 66, 61], [100, 97, 94, 92, 83, 82, 77, 76, 72, 71], [100, 98, 97, 90, 88, 86, 84, 83, 82, 81, 80, 72], [99, 98, 93, 90, 85, 84, 81, 80, 78, 77, 76], [100, 99, 98, 97, 96, 95, 91, 90, 81, 80, 77], [100, 99, 96, 93, 91, 90, 85, 80, 74], [99, 93, 91, 90, 83, 81, 80, 74], [99, 98, 97, 96, 93, 90, 89, 87, 76], [97, 93, 91, 88, 85, 84, 81, 80], [97, 93, 90, 81, 80, 78, 76], [97, 93, 90, 86, 85, 84, 76], [98, 97, 93, 92, 90, 88, 83, 82], [100, 98, 97, 91, 90, 83, 72], [98, 96, 93, 91, 88, 81, 80], [91, 90, 88, 80], [90, 88, 87, 80], [99, 90, 81], [93, 89, 87], [97, 89, 87], [88, 82], [98, 80], [91, 88], [89, 88], [91, 88], [96, 89], [92], [87], [87], [89], [87], [89], [87], [102], [102], [102], [102], [102], [102], [102], [102], [102], [102], [102], [102], [102], [102], [102], []]
letting durations = [[0], [5, 8, 9], [1, 2, 7], [1, 2, 9], [3, 3, 9], [4, 10, 10], [9, 9, 10], [3, 5, 10], [4, 5, 7], [7, 8, 9], [1, 1, 3], [1, 3, 9], [4, 6, 10], [3, 4, 10], [2, 4, 8], [6, 7, 8], [7, 7, 9], [3, 5, 8], [1, 4, 5], [1, 6, 9], [3, 8, 10], [1, 6, 8], [1, 2, 6], [2, 5, 7], [3, 5, 6], [2, 4, 5], [2, 5, 7], [2, 4, 5], [5, 6, 8], [3, 4, 5], [2, 3, 5], [3, 9, 10], [1, 5, 7], [6, 7, 10], [5, 9, 10], [2, 4, 10], [3, 3, 8], [1, 3, 9], [1, 1, 6], [2, 3, 6], [1, 3, 10], [5, 7, 9], [1, 2, 8], [2, 4, 5], [7, 9, 10], [2, 3, 7], [1, 6, 7], [3, 4, 8], [3, 9, 10], [2, 6, 7], [2, 5, 5], [1, 3, 8], [2, 6, 9], [1, 3, 4], [7, 8, 9], [5, 6, 10], [3, 6, 8], [1, 2, 10], [1, 7, 9], [1, 6, 7], [6, 6, 10], [6, 7, 9], [1, 2, 3], [2, 6, 10], [5, 6, 6], [4, 6, 9], [7, 9, 10], [4, 7, 10], [6, 7, 10], [4, 5, 9], [3, 4, 10], [3, 10, 10], [6, 9, 10], [1, 5, 6], [6, 7, 10], [2, 4, 7], [2, 6, 7], [1, 3, 10], [3, 4, 5], [5, 7, 8], [2, 7, 10], [4, 8, 10], [1, 6, 6], [3, 8, 9], [1, 5, 9], [5, 9, 9], [1, 3, 4], [1, 2, 10], [2, 2, 10], [1, 4, 10], [1, 5, 10], [5, 6, 10], [1, 9, 10], [3, 6, 7], [5, 6, 6], [6, 7, 10], [7, 9, 9], [2, 6, 9], [3, 4, 6], [2, 2, 4], [1, 7, 10], [0]]
letting resourceUsage = [[[0, 0, 0, 0]], [[0, 4, 5, 6], [3, 0, 3, 5], [3, 0, 2, 5]], [[4, 0, 5, 2], [3, 0, 4, 2], [3, 0, 2, 2]], [[4, 0, 7, 5], [3, 0, 5, 5], [0, 3, 5, 5]], [[3, 0, 8, 8], [0, 3, 4, 6], [1, 0, 2, 5]], [[2, 0, 8, 7], [0, 2, 5, 7], [1, 0, 5, 6]], [[4, 0, 9, 10], [0, 1, 9, 10], [3, 0, 9, 10]], [[0, 5, 4, 7], [4, 0, 3, 6], [3, 0, 3, 6]], [[4, 0, 9, 10], [4, 0, 8, 10], [4, 0, 6, 10]], [[0, 2, 7, 9], [0, 2, 6, 8], [3, 0, 4, 7]], [[5, 0, 6, 8], [0, 5, 5, 7], [3, 0, 3, 6]], [[4, 0, 10, 7], [4, 0, 9, 7], [0, 3, 8, 7]], [[0, 4, 6, 7], [0, 4, 5, 7], [0, 4, 5, 6]], [[1, 0, 9, 10], [0, 3, 5, 9], [0, 1, 1, 9]], [[4, 0, 5, 3], [3, 0, 5, 3], [3, 0, 5, 2]], [[0, 4, 9, 6], [0, 4, 9, 5], [1, 0, 9, 4]], [[3, 0, 4, 9], [0, 3, 2, 6], [3, 0, 2, 6]], [[0, 3, 5, 6], [0, 3, 5, 5], [0, 3, 4, 6]], [[0, 4, 6, 4], [0, 2, 6, 3], [0, 2, 6, 2]], [[3, 0, 9, 7], [1, 0, 6, 4], [0, 1, 3, 3]], [[0, 5, 8, 1], [3, 0, 6, 1], [2, 0, 4, 1]], [[0, 1, 6, 4], [1, 0, 5, 3], [0, 1, 5, 3]], [[0, 5, 9, 10], [0, 5, 5, 4], [2, 0, 2, 3]], [[0, 4, 8, 8], [0, 3, 8, 3], [2, 0, 7, 2]], [[0, 5, 8, 8], [1, 0, 7, 6], [0, 3, 4, 3]], [[2, 0, 8, 7], [0, 3, 7, 6], [0, 3, 6, 6]], [[0, 3, 6, 7], [2, 0, 6, 7], [0, 1, 5, 7]], [[0, 3, 2, 5], [0, 3, 2, 4], [0, 2, 2, 5]], [[0, 2, 9, 9], [0, 1, 6, 8], [3, 0, 2, 6]], [[0, 4, 3, 3], [0, 2, 2, 3], [0, 1, 2, 3]], [[0, 2, 8, 8], [4, 0, 8, 6], [4, 0, 8, 5]], [[2, 0, 2, 7], [1, 0, 1, 5], [1, 0, 1, 2]], [[4, 0, 2, 8], [2, 0, 2, 7], [2, 0, 2, 6]], [[0, 5, 9, 7], [3, 0, 5, 6], [2, 0, 5, 5]], [[0, 4, 4, 6], [1, 0, 3, 4], [0, 3, 3, 4]], [[5, 0, 8, 10], [5, 0, 6, 9], [0, 3, 5, 9]], [[4, 0, 9, 6], [0, 3, 8, 3], [0, 3, 7, 3]], [[3, 0, 10, 10], [2, 0, 6, 8], [2, 0, 3, 8]], [[3, 0, 8, 5], [0, 2, 7, 5], [0, 2, 6, 3]], [[5, 0, 4, 9], [5, 0, 4, 6], [0, 3, 3, 4]], [[0, 1, 9, 7], [3, 0, 9, 7], [0, 1, 9, 4]], [[5, 0, 2, 9], [2, 0, 1, 9], [0, 3, 1, 9]], [[0, 5, 7, 6], [0, 4, 7, 2], [0, 4, 3, 2]], [[0, 5, 8, 7], [0, 4, 8, 3], [4, 0, 8, 1]], [[5, 0, 7, 8], [0, 2, 6, 7], [0, 2, 5, 7]], [[2, 0, 5, 3], [0, 2, 5, 2], [2, 0, 5, 2]], [[0, 1, 4, 7], [0, 1, 4, 6], [2, 0, 4, 5]], [[5, 0, 9, 6], [0, 2, 7, 5], [4, 0, 7, 5]], [[2, 0, 8, 5], [0, 3, 3, 4], [2, 0, 1, 3]], [[4, 0, 7, 7], [2, 0, 6, 7], [0, 2, 5, 7]], [[0, 4, 10, 7], [0, 2, 8, 6], [2, 0, 6, 6]], [[2, 0, 7, 7], [0, 2, 7, 4], [0, 2, 6, 4]], [[2, 0, 9, 10], [0, 4, 7, 10], [0, 4, 7, 9]], [[2, 0, 9, 7], [0, 3, 7, 6], [0, 2, 5, 6]], [[3, 0, 9, 4], [2, 0, 8, 4], [1, 0, 8, 4]], [[5, 0, 8, 10], [0, 3, 7, 10], [3, 0, 7, 10]], [[2, 0, 8, 7], [0, 2, 8, 5], [2, 0, 7, 2]], [[4, 0, 8, 6], [0, 2, 6, 4], [0, 2, 4, 3]], [[0, 4, 3, 4], [2, 0, 2, 3], [2, 0, 2, 2]], [[0, 2, 5, 7], [0, 2, 3, 3], [1, 0, 2, 2]], [[5, 0, 7, 8], [0, 1, 5, 6], [0, 1, 4, 4]], [[4, 0, 5, 7], [3, 0, 4, 7], [2, 0, 4, 6]], [[0, 4, 8, 5], [0, 4, 6, 4], [0, 4, 6, 2]], [[3, 0, 6, 10], [3, 0, 4, 5], [3, 0, 4, 2]], [[0, 3, 7, 6], [0, 3, 6, 6], [3, 0, 4, 5]], [[3, 0, 5, 6], [0, 3, 2, 4], [2, 0, 1, 4]], [[2, 0, 6, 7], [0, 2, 6, 6], [0, 2, 3, 5]], [[0, 2, 5, 7], [0, 2, 5, 6], [2, 0, 2, 4]], [[3, 0, 10, 10], [0, 3, 9, 4], [2, 0, 8, 4]], [[0, 4, 8, 2], [3, 0, 6, 2], [1, 0, 6, 2]], [[0, 4, 6, 9], [1, 0, 4, 8], [1, 0, 4, 7]], [[0, 1, 8, 5], [0, 1, 7, 3], [3, 0, 3, 3]], [[0, 2, 10, 7], [0, 2, 9, 4], [2, 0, 9, 3]], [[5, 0, 7, 8], [0, 3, 6, 3], [0, 3, 6, 2]], [[0, 5, 9, 6], [0, 4, 7, 4], [4, 0, 6, 2]], [[0, 2, 10, 8], [0, 2, 10, 6], [0, 2, 10, 5]], [[0, 4, 7, 7], [1, 0, 6, 6], [1, 0, 6, 5]], [[0, 5, 7, 5], [2, 0, 6, 4], [0, 3, 5, 3]], [[0, 4, 9, 9], [4, 0, 5, 9], [4, 0, 4, 9]], [[0, 4, 2, 4], [2, 0, 2, 4], [0, 3, 2, 4]], [[0, 5, 4, 5], [0, 3, 4, 4], [0, 3, 4, 1]], [[0, 4, 9, 7], [0, 3, 9, 6], [2, 0, 8, 2]], [[0, 4, 8, 6], [3, 0, 8, 6], [0, 2, 7, 5]], [[2, 0, 8, 8], [2, 0, 7, 3], [2, 0, 6, 2]], [[0, 5, 3, 4], [3, 0, 3, 3], [0, 5, 3, 2]], [[2, 0, 1, 6], [1, 0, 1, 5], [0, 2, 1, 3]], [[0, 5, 8, 9], [0, 4, 7, 8], [0, 3, 7, 6]], [[0, 1, 5, 8], [0, 1, 3, 8], [3, 0, 3, 7]], [[0, 4, 4, 8], [1, 0, 3, 7], [1, 0, 2, 7]], [[0, 4, 10, 8], [0, 3, 7, 8], [3, 0, 7, 8]], [[0, 3, 9, 8], [3, 0, 3, 6], [2, 0, 3, 3]], [[3, 0, 3, 1], [0, 2, 3, 1], [0, 2, 2, 1]], [[0, 4, 3, 6], [2, 0, 3, 4], [0, 2, 3, 1]], [[5, 0, 10, 7], [4, 0, 6, 7], [4, 0, 3, 7]], [[0, 5, 5, 8], [0, 5, 5, 7], [2, 0, 5, 3]], [[4, 0, 5, 8], [3, 0, 3, 5], [0, 4, 3, 4]], [[3, 0, 6, 8], [2, 0, 6, 8], [0, 2, 6, 7]], [[3, 0, 10, 7], [3, 0, 7, 5], [2, 0, 5, 2]], [[0, 4, 2, 5], [1, 0, 1, 5], [0, 3, 1, 5]], [[0, 4, 8, 5], [1, 0, 6, 4], [0, 4, 6, 3]], [[2, 0, 6, 6], [0, 3, 5, 4], [1, 0, 3, 3]], [[0, 0, 0, 0]]]
